
428
1000
   800      4
   799      2
   798      2
   797      1
   796      4
   795      1
   794      3
   793      1
   792      1
   791      3
   790      2
   789      4
   788      3
   787      1
   786      2
   785      3
   784      2
   783      2
   782      1
   781      2
   778      5
   777      1
   776      1
   775      1
   774      2
   772      4
   770      1
   769      1
   768      1
   767      1
   766      4
   763      4
   761      3
   760      1
   759      4
   758      3
   757      5
   756      2
   753      1
   751      3
   750      1
   748      1
   747      2
   746      1
   745      2
   743      4
   741      1
   740      3
   739      1
   735      1
   734      1
   733      1
   732      1
   730      2
   729      1
   727      2
   726      3
   725      3
   723      3
   722      1
   721      1
   720      2
   719      1
   718      2
   713      3
   712      1
   711      2
   710      1
   707      1
   705      1
   703      5
   702      1
   701      1
   699      3
   698      1
   695      2
   694      3
   693      2
   692      1
   691      3
   690      1
   689      1
   688      1
   687      1
   686      3
   685      3
   681      3
   680      1
   679      1
   678      1
   676      3
   675      1
   674      1
   673      1
   670      3
   669      2
   667      3
   666      1
   665      2
   664      2
   662      4
   660      2
   659      1
   658      5
   657      1
   655      2
   654      1
   653      2
   652      1
   649      1
   647      1
   646      1
   645      2
   644      3
   643      2
   641      1
   640      1
   639      1
   634      1
   633      2
   632      1
   631      3
   630      3
   629      2
   628      2
   626      2
   625      1
   624      1
   622      2
   620      1
   619      1
   618      2
   617      1
   616      2
   615      1
   614      2
   613      1
   612      3
   610      2
   608      1
   606      1
   603      3
   602      2
   601      3
   600      2
   598      1
   597      1
   596      1
   595      1
   594      2
   593      1
   591      3
   590      1
   589      1
   588      2
   586      2
   585      3
   583      1
   582      1
   581      1
   579      2
   578      1
   577      1
   576      3
   575      1
   574      1
   573      2
   572      2
   571      2
   570      1
   568      1
   567      1
   566      2
   565      1
   563      2
   562      3
   561      1
   559      1
   558      2
   557      2
   556      2
   554      1
   553      1
   552      1
   551      1
   550      2
   549      1
   548      2
   544      1
   543      1
   542      1
   541      3
   540      2
   539      2
   536      2
   534      1
   533      2
   532      1
   530      2
   529      2
   528      3
   526      2
   524      1
   523      1
   522      2
   519      1
   518      3
   517      2
   516      3
   515      3
   514      1
   513      1
   512      1
   511      2
   510      2
   509      1
   504      1
   503      1
   502      1
   501      1
   500      1
   499      1
   498      2
   497      3
   495      1
   492      2
   489      2
   487      2
   486      1
   483      2
   482      2
   481      2
   480      3
   479      2
   478      1
   477      2
   475      2
   474      1
   473      1
   472      1
   469      1
   468      1
   467      1
   466      1
   465      1
   464      1
   463      2
   462      1
   461      3
   460      1
   457      2
   454      2
   453      1
   452      3
   451      1
   450      4
   449      2
   447      3
   445      1
   441      1
   439      1
   438      2
   437      3
   436      1
   435      1
   434      2
   432      1
   431      1
   430      1
   429      1
   428      1
   426      4
   425      1
   424      1
   422      3
   421      2
   420      1
   419      1
   418      2
   416      3
   413      2
   412      2
   411      4
   409      1
   408      2
   407      1
   406      1
   405      3
   403      2
   402      2
   399      1
   398      1
   397      3
   396      1
   395      1
   394      2
   393      1
   392      1
   391      2
   389      2
   388      1
   387      2
   385      1
   384      1
   383      1
   382      3
   381      1
   380      1
   379      1
   378      2
   376      1
   375      2
   371      2
   370      1
   369      3
   367      3
   366      1
   365      1
   364      1
   363      2
   362      2
   361      1
   360      4
   359      2
   356      1
   355      3
   353      1
   352      1
   349      1
   348      2
   346      2
   345      4
   342      1
   340      3
   336      1
   335      1
   334      2
   331      1
   330      3
   328      4
   327      1
   326      1
   325      2
   322      1
   321      3
   320      1
   318      2
   317      2
   316      1
   314      1
   313      2
   312      1
   311      1
   310      2
   309      1
   308      1
   307      3
   306      1
   304      2
   303      3
   298      2
   297      3
   296      1
   295      2
   294      2
   292      1
   291      1
   290      1
   288      3
   287      2
   286      1
   285      2
   284      1
   283      2
   282      3
   277      1
   276      1
   275      2
   274      1
   273      2
   271      2
   270      1
   268      1
   266      1
   265      1
   264      1
   261      3
   260      2
   259      2
   255      1
   254      2
   253      1
   252      1
   250      4
   249      2
   248      3
   247      3
   246      2
   244      1
   243      2
   242      2
   240      1
   237      1
   235      1
   234      1
   233      2
   232      1
   230      1
   229      1
   228      2
   227      2
   225      3
   222      1
   220      1
   218      1
   217      2
   213      4
   211      1
   210      2
   209      2
   208      1
   207      4
   206      1
   205      1
   204      1
   203      2
   202      1
   200      2




The initial LP solution: time=1.3


File: BPP_750_1000_0.2_0.8_4.txt  Instance No. 1
Wed Feb 25 13:51:53 2015

LP solution: lpval=400 lpbnd=400

2: 0:1 obj 1\\
2: 0:1 427:1 obj 1\\
2: 1:1 obj 1\\
1: 2:1 obj 1\\
1: 2:1 426:1 obj 1\\
1: 3:1 425:1 obj 1\\
1: 4:1 obj 1\\
1: 4:1 424:1 obj 1\\
2: 4:1 425:1 obj 1\\
1: 5:1 423:1 obj 1\\
2: 6:1 obj 1\\
1: 6:1 422:1 obj 1\\
1: 7:1 421:1 obj 1\\
1: 8:1 420:1 obj 1\\
2: 9:1 419:1 obj 1\\
1: 9:1 421:1 obj 1\\
2: 10:1 418:1 obj 1\\
1: 11:1 obj 1\\
1: 11:1 417:1 obj 1\\
2: 11:1 421:1 obj 1\\
3: 12:1 obj 1\\
1: 13:1 416:1 obj 1\\
2: 14:1 416:1 obj 1\\
3: 15:1 416:1 obj 1\\
2: 16:1 obj 1\\
2: 17:1 415:1 obj 1\\
1: 18:1 414:1 obj 1\\
2: 19:1 obj 1\\
4: 20:1 obj 1\\
1: 20:1 412:1 obj 1\\
1: 21:1 413:1 obj 1\\
1: 22:1 obj 1\\
1: 23:1 411:1 obj 1\\
2: 24:1 411:1 obj 1\\
2: 25:1 obj 1\\
2: 25:1 409:1 obj 1\\
1: 26:1 407:1 obj 1\\
1: 27:1 408:1 obj 1\\
1: 28:1 406:1 obj 1\\
1: 29:1 405:1 obj 1\\
3: 30:1 obj 1\\
1: 30:1 404:1 obj 1\\
3: 31:1 obj 1\\
1: 31:1 402:1 obj 1\\
1: 32:1 403:1 obj 1\\
2: 32:1 410:1 obj 1\\
1: 33:1 401:1 obj 1\\
2: 34:1 obj 1\\
2: 34:1 405:1 obj 1\\
1: 35:1 obj 1\\
2: 35:1 400:1 obj 1\\
3: 36:1 obj 1\\
2: 36:1 399:1 obj 1\\
1: 37:1 obj 1\\
1: 37:1 398:1 obj 1\\
1: 38:1 396:1 obj 1\\
1: 39:1 obj 1\\
2: 39:1 394:1 obj 1\\
1: 40:1 393:1 obj 1\\
1: 41:1 392:1 obj 1\\
1: 42:1 obj 1\\
1: 42:1 391:1 obj 1\\
1: 43:1 390:1 obj 1\\
1: 44:1 obj 1\\
1: 44:1 389:1 obj 1\\
1: 45:1 393:1 obj 1\\
3: 45:1 395:1 obj 1\\
1: 46:1 388:1 obj 1\\
2: 47:1 387:1 obj 1\\
1: 47:1 397:1 obj 1\\
1: 49:1 384:1 obj 1\\
1: 50:1 383:1 obj 1\\
1: 51:1 385:1 obj 1\\
1: 52:1 382:1 obj 1\\
1: 53:1 381:1 obj 1\\
1: 53:1 386:1 obj 1\\
1: 54:1 380:1 obj 1\\
2: 55:1 379:1 obj 1\\
1: 56:1 378:1 obj 1\\
1: 56:1 380:1 obj 1\\
1: 56:1 386:1 obj 1\\
2: 57:1 377:1 obj 1\\
1: 57:1 393:1 obj 1\\
1: 58:1 obj 1\\
1: 58:1 375:1 obj 1\\
1: 58:1 376:1 obj 1\\
1: 59:1 388:1 obj 1\\
1: 60:1 390:1 obj 1\\
2: 61:1 396:1 obj 1\\
1: 62:1 393:1 obj 1\\
2: 63:1 374:1 obj 1\\
2: 64:1 369:1 obj 1\\
1: 64:1 370:1 obj 1\\
1: 65:1 368:1 obj 1\\
2: 66:1 368:1 obj 1\\
1: 67:1 367:1 obj 1\\
1: 68:1 365:1 obj 1\\
1: 69:1 363:1 obj 1\\
3: 70:1 361:1 obj 1\\
2: 70:1 363:1 obj 1\\
1: 71:1 360:1 obj 1\\
1: 72:1 362:1 obj 1\\
2: 73:1 364:1 obj 1\\
1: 73:1 374:1 obj 1\\
1: 74:1 366:1 obj 1\\
1: 75:1 358:1 obj 1\\
1: 76:1 357:1 obj 1\\
2: 76:1 360:1 obj 1\\
2: 77:1 356:1 obj 1\\
1: 78:1 355:1 obj 1\\
1: 79:1 354:1 obj 1\\
2: 79:1 356:1 obj 1\\
1: 80:1 353:1 obj 1\\
1: 81:1 352:1 obj 1\\
1: 82:1 351:1 obj 1\\
1: 83:1 350:1 obj 1\\
1: 84:1 349:1 obj 1\\
2: 84:1 350:1 obj 1\\
3: 85:1 359:1 obj 1\\
2: 86:1 346:1 obj 1\\
1: 86:1 347:1 obj 1\\
1: 87:1 345:1 obj 1\\
1: 88:1 344:1 obj 1\\
1: 89:1 343:1 obj 1\\
1: 90:1 344:1 obj 1\\
1: 90:1 347:1 obj 1\\
1: 90:1 348:1 obj 1\\
1: 91:1 342:1 obj 1\\
1: 92:1 341:1 obj 1\\
1: 93:1 340:1 obj 1\\
3: 94:1 338:1 obj 1\\
1: 95:1 337:1 obj 1\\
1: 95:1 353:1 obj 1\\
3: 96:1 339:1 obj 1\\
1: 97:1 336:1 obj 1\\
1: 98:1 335:1 obj 1\\
1: 98:1 339:1 obj 1\\
1: 99:1 334:1 obj 1\\
1: 99:1 336:1 obj 1\\
2: 100:1 342:1 obj 1\\
1: 100:1 344:1 obj 1\\
2: 101:1 333:1 obj 1\\
1: 102:1 333:1 obj 1\\
1: 103:1 332:1 obj 1\\
2: 103:1 371:1 obj 1\\
1: 103:1 372:1 obj 1\\
1: 103:1 373:1 obj 1\\
1: 104:1 373:1 obj 1\\
2: 105:1 331:1 obj 1\\
1: 106:1 330:1 obj 1\\
2: 107:1 330:1 obj 1\\
1: 108:1 329:1 obj 1\\
1: 109:1 328:1 obj 1\\
1: 110:1 326:1 obj 1\\
1: 111:1 327:1 obj 1\\
2: 112:1 325:1 obj 1\\
1: 113:1 324:1 obj 1\\
1: 113:1 325:1 obj 1\\
1: 113:1 329:1 obj 1\\
2: 114:1 331:1 obj 1\\
1: 115:1 323:1 obj 1\\
1: 116:1 322:1 obj 1\\
1: 117:1 321:1 obj 1\\
1: 118:1 316:1 obj 1\\
2: 119:1 315:1 obj 1\\
1: 120:1 317:1 obj 1\\
3: 121:1 314:1 obj 1\\
1: 122:1 313:1 obj 1\\
2: 122:1 322:1 obj 1\\
2: 123:1 312:1 obj 1\\
1: 124:1 318:1 obj 1\\
1: 124:1 319:1 obj 1\\
2: 125:1 320:1 obj 1\\
1: 126:1 311:1 obj 1\\
1: 127:1 310:1 obj 1\\
2: 128:1 309:1 obj 1\\
1: 129:1 307:1 obj 1\\
1: 130:1 306:1 obj 1\\
2: 131:1 305:1 obj 1\\
1: 132:1 304:1 obj 1\\
1: 133:1 303:1 obj 1\\
1: 133:1 311:1 obj 1\\
1: 134:1 302:1 obj 1\\
1: 135:1 305:1 obj 1\\
1: 135:1 308:1 obj 1\\
1: 136:1 301:1 obj 1\\
1: 137:1 301:1 obj 1\\
1: 137:1 315:1 obj 1\\
2: 138:1 299:1 obj 1\\
1: 139:1 297:1 obj 1\\
1: 140:1 295:1 obj 1\\
3: 141:1 292:1 obj 1\\
1: 142:1 291:1 obj 1\\
1: 142:1 298:1 obj 1\\
1: 143:1 290:1 obj 1\\
1: 143:1 293:1 obj 1\\
1: 143:1 295:1 obj 1\\
1: 144:1 294:1 obj 1\\
1: 144:1 296:1 obj 1\\
1: 145:1 289:1 obj 1\\
1: 146:1 288:1 obj 1\\
1: 147:1 288:1 obj 1\\
1: 148:1 287:1 obj 1\\
1: 149:1 286:1 obj 1\\
1: 149:1 287:1 obj 1\\
1: 150:1 285:1 obj 1\\
1: 151:1 283:1 obj 1\\
2: 151:1 284:1 obj 1\\
1: 152:1 289:1 obj 1\\
1: 153:1 282:1 obj 1\\
1: 154:1 281:1 obj 1\\
2: 155:1 280:1 obj 1\\
3: 156:1 282:1 obj 1\\
1: 157:1 279:1 obj 1\\
1: 158:1 278:1 obj 1\\
1: 159:1 277:1 obj 1\\
1: 160:1 275:1 obj 1\\
1: 161:1 274:1 obj 1\\
1: 162:1 274:1 obj 1\\
1: 163:1 273:1 obj 1\\
1: 163:1 274:1 obj 1\\
1: 164:1 272:1 obj 1\\
1: 165:1 271:1 obj 1\\
1: 166:1 278:1 obj 1\\
1: 167:1 270:1 obj 1\\
1: 167:1 319:1 obj 1\\
1: 168:1 269:1 obj 1\\
1: 168:1 287:1 obj 1\\
1: 169:1 268:1 obj 1\\
1: 170:1 266:1 obj 1\\
1: 171:1 267:1 obj 1\\
2: 172:1 265:1 obj 1\\
1: 173:1 264:1 obj 1\\
2: 174:1 262:1 obj 1\\
2: 175:1 261:1 obj 1\\
1: 175:1 279:1 obj 1\\
1: 176:1 260:1 obj 1\\
1: 177:1 259:1 obj 1\\
1: 178:1 262:1 obj 1\\
1: 178:1 263:1 obj 1\\
2: 179:1 271:1 obj 1\\
1: 180:1 271:1 obj 1\\
1: 180:1 279:1 obj 1\\
1: 181:1 258:1 obj 1\\
1: 182:1 257:1 obj 1\\
1: 183:1 257:1 obj 1\\
1: 184:1 256:1 obj 1\\
2: 185:1 255:1 obj 1\\
1: 186:1 254:1 obj 1\\
2: 187:1 253:1 obj 1\\
1: 188:1 251:1 obj 1\\
1: 189:1 250:1 obj 1\\
1: 190:1 252:1 obj 1\\
1: 191:1 251:1 obj 1\\
2: 191:1 255:1 obj 1\\
1: 192:1 249:1 obj 1\\
1: 192:1 256:1 obj 1\\
2: 193:1 248:1 obj 1\\
1: 194:1 257:1 obj 1\\
1: 195:1 243:1 obj 1\\
1: 196:1 242:1 obj 1\\
1: 196:1 246:1 obj 1\\
1: 198:1 240:1 obj 1\\
1: 199:1 244:1 obj 1\\
1: 199:1 246:1 obj 1\\
1: 200:1 239:1 obj 1\\
1: 200:1 247:1 obj 1\\
1: 201:1 237:1 obj 1\\
1: 201:1 238:1 obj 1\\
1: 202:1 236:1 obj 1\\
1: 203:1 235:1 obj 1\\
1: 204:1 234:1 obj 1\\
1: 204:1 235:1 obj 1\\
1: 205:1 231:1 obj 1\\
2: 206:1 230:1 obj 1\\
1: 206:1 231:1 obj 1\\
2: 207:1 229:1 obj 1\\
3: 208:1 232:1 obj 1\\
2: 209:1 233:1 obj 1\\
1: 209:1 248:1 obj 1\\
1: 210:1 228:1 obj 1\\
1: 211:1 227:1 obj 1\\
1: 212:1 227:1 obj 1\\
2: 213:1 226:1 obj 1\\
1: 214:1 236:1 obj 1\\
1: 214:1 253:1 obj 1\\
1: 215:1 250:1 obj 1\\
1: 216:1 224:1 obj 1\\
1: 217:1 223:1 obj 1\\
1: 218:1 222:1 obj 1\\
1: 219:1 221:1 obj 1\\
1: 220:1 222:1 obj 1\\
1: 223:2 obj 1\\
1: 225:2 obj 1\\
1: 330:-1 obj 0\\
1: 342:-1 obj 0\\
1: 350:-1 obj 0\\
1: 356:-1 obj 0\\
1: 360:-1 obj 0\\
1: 363:-1 obj 0\\
1: 405:-1 obj 0\\
2: 416:-1 obj 0\\
1: 425:-1 obj 0\\
1: 154:1 322:1 obj 1\\
1: 197:1 245:1 obj 1\\
1: 75:1 386:1 obj 1\\
1: 48:1 397:1 obj 1\\
1: 160:1 281:1 obj 1\\
1: 194:1 275:1 obj 1\\
1: 200:1 300:1 obj 1\\
1: 100:1 358:1 obj 1\\
1: 137:1 323:1 obj 1\\
1: 163:1 276:1 obj 1\\
1: 166:1 298:1 obj 1\\
1: 198:1 241:1 obj 1\\






File: BPP_750_1000_0.2_0.8_4.txt  Instance No. 1
Wed Feb 25 13:51:53 2015

LP0 Time: 1.3 IPTime: 1.3 The best integer solution (400):

2: 0:1 obj 1\\
2: 0:1 427:1 obj 1\\
2: 1:1 obj 1\\
1: 2:1 obj 1\\
1: 2:1 426:1 obj 1\\
1: 3:1 425:1 obj 1\\
1: 4:1 obj 1\\
1: 4:1 424:1 obj 1\\
2: 4:1 425:1 obj 1\\
1: 5:1 423:1 obj 1\\
2: 6:1 obj 1\\
1: 6:1 422:1 obj 1\\
1: 7:1 421:1 obj 1\\
1: 8:1 420:1 obj 1\\
2: 9:1 419:1 obj 1\\
1: 9:1 421:1 obj 1\\
2: 10:1 418:1 obj 1\\
1: 11:1 obj 1\\
1: 11:1 417:1 obj 1\\
2: 11:1 421:1 obj 1\\
3: 12:1 obj 1\\
1: 13:1 416:1 obj 1\\
2: 14:1 416:1 obj 1\\
3: 15:1 416:1 obj 1\\
2: 16:1 obj 1\\
2: 17:1 415:1 obj 1\\
1: 18:1 414:1 obj 1\\
2: 19:1 obj 1\\
4: 20:1 obj 1\\
1: 20:1 412:1 obj 1\\
1: 21:1 413:1 obj 1\\
1: 22:1 obj 1\\
1: 23:1 411:1 obj 1\\
2: 24:1 411:1 obj 1\\
2: 25:1 obj 1\\
2: 25:1 409:1 obj 1\\
1: 26:1 407:1 obj 1\\
1: 27:1 408:1 obj 1\\
1: 28:1 406:1 obj 1\\
1: 29:1 405:1 obj 1\\
3: 30:1 obj 1\\
1: 30:1 404:1 obj 1\\
3: 31:1 obj 1\\
1: 31:1 402:1 obj 1\\
1: 32:1 403:1 obj 1\\
2: 32:1 410:1 obj 1\\
1: 33:1 401:1 obj 1\\
2: 34:1 obj 1\\
2: 34:1 405:1 obj 1\\
1: 35:1 obj 1\\
2: 35:1 400:1 obj 1\\
3: 36:1 obj 1\\
2: 36:1 399:1 obj 1\\
1: 37:1 obj 1\\
1: 37:1 398:1 obj 1\\
1: 38:1 396:1 obj 1\\
1: 39:1 obj 1\\
2: 39:1 394:1 obj 1\\
1: 40:1 393:1 obj 1\\
1: 41:1 392:1 obj 1\\
1: 42:1 obj 1\\
1: 42:1 391:1 obj 1\\
1: 43:1 390:1 obj 1\\
1: 44:1 obj 1\\
1: 44:1 389:1 obj 1\\
1: 45:1 393:1 obj 1\\
3: 45:1 395:1 obj 1\\
1: 46:1 388:1 obj 1\\
2: 47:1 387:1 obj 1\\
1: 47:1 397:1 obj 1\\
1: 49:1 384:1 obj 1\\
1: 50:1 383:1 obj 1\\
1: 51:1 385:1 obj 1\\
1: 52:1 382:1 obj 1\\
1: 53:1 381:1 obj 1\\
1: 53:1 386:1 obj 1\\
1: 54:1 380:1 obj 1\\
2: 55:1 379:1 obj 1\\
1: 56:1 378:1 obj 1\\
1: 56:1 380:1 obj 1\\
1: 56:1 386:1 obj 1\\
2: 57:1 377:1 obj 1\\
1: 57:1 393:1 obj 1\\
1: 58:1 obj 1\\
1: 58:1 375:1 obj 1\\
1: 58:1 376:1 obj 1\\
1: 59:1 388:1 obj 1\\
1: 60:1 390:1 obj 1\\
2: 61:1 396:1 obj 1\\
1: 62:1 393:1 obj 1\\
2: 63:1 374:1 obj 1\\
2: 64:1 369:1 obj 1\\
1: 64:1 370:1 obj 1\\
1: 65:1 368:1 obj 1\\
2: 66:1 368:1 obj 1\\
1: 67:1 367:1 obj 1\\
1: 68:1 365:1 obj 1\\
1: 69:1 363:1 obj 1\\
3: 70:1 361:1 obj 1\\
2: 70:1 363:1 obj 1\\
1: 71:1 360:1 obj 1\\
1: 72:1 362:1 obj 1\\
2: 73:1 364:1 obj 1\\
1: 73:1 374:1 obj 1\\
1: 74:1 366:1 obj 1\\
1: 75:1 358:1 obj 1\\
1: 76:1 357:1 obj 1\\
2: 76:1 360:1 obj 1\\
2: 77:1 356:1 obj 1\\
1: 78:1 355:1 obj 1\\
1: 79:1 354:1 obj 1\\
2: 79:1 356:1 obj 1\\
1: 80:1 353:1 obj 1\\
1: 81:1 352:1 obj 1\\
1: 82:1 351:1 obj 1\\
1: 83:1 350:1 obj 1\\
1: 84:1 349:1 obj 1\\
2: 84:1 350:1 obj 1\\
3: 85:1 359:1 obj 1\\
2: 86:1 346:1 obj 1\\
1: 86:1 347:1 obj 1\\
1: 87:1 345:1 obj 1\\
1: 88:1 344:1 obj 1\\
1: 89:1 343:1 obj 1\\
1: 90:1 344:1 obj 1\\
1: 90:1 347:1 obj 1\\
1: 90:1 348:1 obj 1\\
1: 91:1 342:1 obj 1\\
1: 92:1 341:1 obj 1\\
1: 93:1 340:1 obj 1\\
3: 94:1 338:1 obj 1\\
1: 95:1 337:1 obj 1\\
1: 95:1 353:1 obj 1\\
3: 96:1 339:1 obj 1\\
1: 97:1 336:1 obj 1\\
1: 98:1 335:1 obj 1\\
1: 98:1 339:1 obj 1\\
1: 99:1 334:1 obj 1\\
1: 99:1 336:1 obj 1\\
2: 100:1 342:1 obj 1\\
1: 100:1 344:1 obj 1\\
2: 101:1 333:1 obj 1\\
1: 102:1 333:1 obj 1\\
1: 103:1 332:1 obj 1\\
2: 103:1 371:1 obj 1\\
1: 103:1 372:1 obj 1\\
1: 103:1 373:1 obj 1\\
1: 104:1 373:1 obj 1\\
2: 105:1 331:1 obj 1\\
1: 106:1 330:1 obj 1\\
2: 107:1 330:1 obj 1\\
1: 108:1 329:1 obj 1\\
1: 109:1 328:1 obj 1\\
1: 110:1 326:1 obj 1\\
1: 111:1 327:1 obj 1\\
2: 112:1 325:1 obj 1\\
1: 113:1 324:1 obj 1\\
1: 113:1 325:1 obj 1\\
1: 113:1 329:1 obj 1\\
2: 114:1 331:1 obj 1\\
1: 115:1 323:1 obj 1\\
1: 116:1 322:1 obj 1\\
1: 117:1 321:1 obj 1\\
1: 118:1 316:1 obj 1\\
2: 119:1 315:1 obj 1\\
1: 120:1 317:1 obj 1\\
3: 121:1 314:1 obj 1\\
1: 122:1 313:1 obj 1\\
2: 122:1 322:1 obj 1\\
2: 123:1 312:1 obj 1\\
1: 124:1 318:1 obj 1\\
1: 124:1 319:1 obj 1\\
2: 125:1 320:1 obj 1\\
1: 126:1 311:1 obj 1\\
1: 127:1 310:1 obj 1\\
2: 128:1 309:1 obj 1\\
1: 129:1 307:1 obj 1\\
1: 130:1 306:1 obj 1\\
2: 131:1 305:1 obj 1\\
1: 132:1 304:1 obj 1\\
1: 133:1 303:1 obj 1\\
1: 133:1 311:1 obj 1\\
1: 134:1 302:1 obj 1\\
1: 135:1 305:1 obj 1\\
1: 135:1 308:1 obj 1\\
1: 136:1 301:1 obj 1\\
1: 137:1 301:1 obj 1\\
1: 137:1 315:1 obj 1\\
2: 138:1 299:1 obj 1\\
1: 139:1 297:1 obj 1\\
1: 140:1 295:1 obj 1\\
3: 141:1 292:1 obj 1\\
1: 142:1 291:1 obj 1\\
1: 142:1 298:1 obj 1\\
1: 143:1 290:1 obj 1\\
1: 143:1 293:1 obj 1\\
1: 143:1 295:1 obj 1\\
1: 144:1 294:1 obj 1\\
1: 144:1 296:1 obj 1\\
1: 145:1 289:1 obj 1\\
1: 146:1 288:1 obj 1\\
1: 147:1 288:1 obj 1\\
1: 148:1 287:1 obj 1\\
1: 149:1 286:1 obj 1\\
1: 149:1 287:1 obj 1\\
1: 150:1 285:1 obj 1\\
1: 151:1 283:1 obj 1\\
2: 151:1 284:1 obj 1\\
1: 152:1 289:1 obj 1\\
1: 153:1 282:1 obj 1\\
1: 154:1 281:1 obj 1\\
2: 155:1 280:1 obj 1\\
3: 156:1 282:1 obj 1\\
1: 157:1 279:1 obj 1\\
1: 158:1 278:1 obj 1\\
1: 159:1 277:1 obj 1\\
1: 160:1 275:1 obj 1\\
1: 161:1 274:1 obj 1\\
1: 162:1 274:1 obj 1\\
1: 163:1 273:1 obj 1\\
1: 163:1 274:1 obj 1\\
1: 164:1 272:1 obj 1\\
1: 165:1 271:1 obj 1\\
1: 166:1 278:1 obj 1\\
1: 167:1 270:1 obj 1\\
1: 167:1 319:1 obj 1\\
1: 168:1 269:1 obj 1\\
1: 168:1 287:1 obj 1\\
1: 169:1 268:1 obj 1\\
1: 170:1 266:1 obj 1\\
1: 171:1 267:1 obj 1\\
2: 172:1 265:1 obj 1\\
1: 173:1 264:1 obj 1\\
2: 174:1 262:1 obj 1\\
2: 175:1 261:1 obj 1\\
1: 175:1 279:1 obj 1\\
1: 176:1 260:1 obj 1\\
1: 177:1 259:1 obj 1\\
1: 178:1 262:1 obj 1\\
1: 178:1 263:1 obj 1\\
2: 179:1 271:1 obj 1\\
1: 180:1 271:1 obj 1\\
1: 180:1 279:1 obj 1\\
1: 181:1 258:1 obj 1\\
1: 182:1 257:1 obj 1\\
1: 183:1 257:1 obj 1\\
1: 184:1 256:1 obj 1\\
2: 185:1 255:1 obj 1\\
1: 186:1 254:1 obj 1\\
2: 187:1 253:1 obj 1\\
1: 188:1 251:1 obj 1\\
1: 189:1 250:1 obj 1\\
1: 190:1 252:1 obj 1\\
1: 191:1 251:1 obj 1\\
2: 191:1 255:1 obj 1\\
1: 192:1 249:1 obj 1\\
1: 192:1 256:1 obj 1\\
2: 193:1 248:1 obj 1\\
1: 194:1 257:1 obj 1\\
1: 195:1 243:1 obj 1\\
1: 196:1 242:1 obj 1\\
1: 196:1 246:1 obj 1\\
1: 198:1 240:1 obj 1\\
1: 199:1 244:1 obj 1\\
1: 199:1 246:1 obj 1\\
1: 200:1 239:1 obj 1\\
1: 200:1 247:1 obj 1\\
1: 201:1 237:1 obj 1\\
1: 201:1 238:1 obj 1\\
1: 202:1 236:1 obj 1\\
1: 203:1 235:1 obj 1\\
1: 204:1 234:1 obj 1\\
1: 204:1 235:1 obj 1\\
1: 205:1 231:1 obj 1\\
2: 206:1 230:1 obj 1\\
1: 206:1 231:1 obj 1\\
2: 207:1 229:1 obj 1\\
3: 208:1 232:1 obj 1\\
2: 209:1 233:1 obj 1\\
1: 209:1 248:1 obj 1\\
1: 210:1 228:1 obj 1\\
1: 211:1 227:1 obj 1\\
1: 212:1 227:1 obj 1\\
2: 213:1 226:1 obj 1\\
1: 214:1 236:1 obj 1\\
1: 214:1 253:1 obj 1\\
1: 215:1 250:1 obj 1\\
1: 216:1 224:1 obj 1\\
1: 217:1 223:1 obj 1\\
1: 218:1 222:1 obj 1\\
1: 219:1 221:1 obj 1\\
1: 220:1 222:1 obj 1\\
1: 223:2 obj 1\\
1: 225:2 obj 1\\
1: 154:1 322:1 obj 1\\
1: 197:1 245:1 obj 1\\
1: 75:1 386:1 obj 1\\
1: 48:1 397:1 obj 1\\
1: 160:1 281:1 obj 1\\
1: 194:1 275:1 obj 1\\
1: 200:1 300:1 obj 1\\
1: 100:1 358:1 obj 1\\
1: 137:1 323:1 obj 1\\
1: 163:1 276:1 obj 1\\
1: 166:1 298:1 obj 1\\
1: 198:1 241:1 obj 1\\



The last LP solution 


File: BPP_750_1000_0.2_0.8_4.txt  Instance No. 1
Wed Feb 25 13:51:53 2015

LP solution: lpval=400 lpbnd=400

2: 0:1 obj 1\\
2: 0:1 427:1 obj 1\\
2: 1:1 obj 1\\
1: 2:1 obj 1\\
1: 2:1 426:1 obj 1\\
1: 3:1 425:1 obj 1\\
1: 4:1 obj 1\\
1: 4:1 424:1 obj 1\\
2: 4:1 425:1 obj 1\\
1: 5:1 423:1 obj 1\\
2: 6:1 obj 1\\
1: 6:1 422:1 obj 1\\
1: 7:1 421:1 obj 1\\
1: 8:1 420:1 obj 1\\
2: 9:1 419:1 obj 1\\
1: 9:1 421:1 obj 1\\
2: 10:1 418:1 obj 1\\
1: 11:1 obj 1\\
1: 11:1 417:1 obj 1\\
2: 11:1 421:1 obj 1\\
3: 12:1 obj 1\\
1: 13:1 416:1 obj 1\\
2: 14:1 416:1 obj 1\\
3: 15:1 416:1 obj 1\\
2: 16:1 obj 1\\
2: 17:1 415:1 obj 1\\
1: 18:1 414:1 obj 1\\
2: 19:1 obj 1\\
4: 20:1 obj 1\\
1: 20:1 412:1 obj 1\\
1: 21:1 413:1 obj 1\\
1: 22:1 obj 1\\
1: 23:1 411:1 obj 1\\
2: 24:1 411:1 obj 1\\
2: 25:1 obj 1\\
2: 25:1 409:1 obj 1\\
1: 26:1 407:1 obj 1\\
1: 27:1 408:1 obj 1\\
1: 28:1 406:1 obj 1\\
1: 29:1 405:1 obj 1\\
3: 30:1 obj 1\\
1: 30:1 404:1 obj 1\\
3: 31:1 obj 1\\
1: 31:1 402:1 obj 1\\
1: 32:1 403:1 obj 1\\
2: 32:1 410:1 obj 1\\
1: 33:1 401:1 obj 1\\
2: 34:1 obj 1\\
2: 34:1 405:1 obj 1\\
1: 35:1 obj 1\\
2: 35:1 400:1 obj 1\\
3: 36:1 obj 1\\
2: 36:1 399:1 obj 1\\
1: 37:1 obj 1\\
1: 37:1 398:1 obj 1\\
1: 38:1 396:1 obj 1\\
1: 39:1 obj 1\\
2: 39:1 394:1 obj 1\\
1: 40:1 393:1 obj 1\\
1: 41:1 392:1 obj 1\\
1: 42:1 obj 1\\
1: 42:1 391:1 obj 1\\
1: 43:1 390:1 obj 1\\
1: 44:1 obj 1\\
1: 44:1 389:1 obj 1\\
1: 45:1 393:1 obj 1\\
3: 45:1 395:1 obj 1\\
1: 46:1 388:1 obj 1\\
2: 47:1 387:1 obj 1\\
1: 47:1 397:1 obj 1\\
1: 49:1 384:1 obj 1\\
1: 50:1 383:1 obj 1\\
1: 51:1 385:1 obj 1\\
1: 52:1 382:1 obj 1\\
1: 53:1 381:1 obj 1\\
1: 53:1 386:1 obj 1\\
1: 54:1 380:1 obj 1\\
2: 55:1 379:1 obj 1\\
1: 56:1 378:1 obj 1\\
1: 56:1 380:1 obj 1\\
1: 56:1 386:1 obj 1\\
2: 57:1 377:1 obj 1\\
1: 57:1 393:1 obj 1\\
1: 58:1 obj 1\\
1: 58:1 375:1 obj 1\\
1: 58:1 376:1 obj 1\\
1: 59:1 388:1 obj 1\\
1: 60:1 390:1 obj 1\\
2: 61:1 396:1 obj 1\\
1: 62:1 393:1 obj 1\\
2: 63:1 374:1 obj 1\\
2: 64:1 369:1 obj 1\\
1: 64:1 370:1 obj 1\\
1: 65:1 368:1 obj 1\\
2: 66:1 368:1 obj 1\\
1: 67:1 367:1 obj 1\\
1: 68:1 365:1 obj 1\\
1: 69:1 363:1 obj 1\\
3: 70:1 361:1 obj 1\\
2: 70:1 363:1 obj 1\\
1: 71:1 360:1 obj 1\\
1: 72:1 362:1 obj 1\\
2: 73:1 364:1 obj 1\\
1: 73:1 374:1 obj 1\\
1: 74:1 366:1 obj 1\\
1: 75:1 358:1 obj 1\\
1: 76:1 357:1 obj 1\\
2: 76:1 360:1 obj 1\\
2: 77:1 356:1 obj 1\\
1: 78:1 355:1 obj 1\\
1: 79:1 354:1 obj 1\\
2: 79:1 356:1 obj 1\\
1: 80:1 353:1 obj 1\\
1: 81:1 352:1 obj 1\\
1: 82:1 351:1 obj 1\\
1: 83:1 350:1 obj 1\\
1: 84:1 349:1 obj 1\\
2: 84:1 350:1 obj 1\\
3: 85:1 359:1 obj 1\\
2: 86:1 346:1 obj 1\\
1: 86:1 347:1 obj 1\\
1: 87:1 345:1 obj 1\\
1: 88:1 344:1 obj 1\\
1: 89:1 343:1 obj 1\\
1: 90:1 344:1 obj 1\\
1: 90:1 347:1 obj 1\\
1: 90:1 348:1 obj 1\\
1: 91:1 342:1 obj 1\\
1: 92:1 341:1 obj 1\\
1: 93:1 340:1 obj 1\\
3: 94:1 338:1 obj 1\\
1: 95:1 337:1 obj 1\\
1: 95:1 353:1 obj 1\\
3: 96:1 339:1 obj 1\\
1: 97:1 336:1 obj 1\\
1: 98:1 335:1 obj 1\\
1: 98:1 339:1 obj 1\\
1: 99:1 334:1 obj 1\\
1: 99:1 336:1 obj 1\\
2: 100:1 342:1 obj 1\\
1: 100:1 344:1 obj 1\\
2: 101:1 333:1 obj 1\\
1: 102:1 333:1 obj 1\\
1: 103:1 332:1 obj 1\\
2: 103:1 371:1 obj 1\\
1: 103:1 372:1 obj 1\\
1: 103:1 373:1 obj 1\\
1: 104:1 373:1 obj 1\\
2: 105:1 331:1 obj 1\\
1: 106:1 330:1 obj 1\\
2: 107:1 330:1 obj 1\\
1: 108:1 329:1 obj 1\\
1: 109:1 328:1 obj 1\\
1: 110:1 326:1 obj 1\\
1: 111:1 327:1 obj 1\\
2: 112:1 325:1 obj 1\\
1: 113:1 324:1 obj 1\\
1: 113:1 325:1 obj 1\\
1: 113:1 329:1 obj 1\\
2: 114:1 331:1 obj 1\\
1: 115:1 323:1 obj 1\\
1: 116:1 322:1 obj 1\\
1: 117:1 321:1 obj 1\\
1: 118:1 316:1 obj 1\\
2: 119:1 315:1 obj 1\\
1: 120:1 317:1 obj 1\\
3: 121:1 314:1 obj 1\\
1: 122:1 313:1 obj 1\\
2: 122:1 322:1 obj 1\\
2: 123:1 312:1 obj 1\\
1: 124:1 318:1 obj 1\\
1: 124:1 319:1 obj 1\\
2: 125:1 320:1 obj 1\\
1: 126:1 311:1 obj 1\\
1: 127:1 310:1 obj 1\\
2: 128:1 309:1 obj 1\\
1: 129:1 307:1 obj 1\\
1: 130:1 306:1 obj 1\\
2: 131:1 305:1 obj 1\\
1: 132:1 304:1 obj 1\\
1: 133:1 303:1 obj 1\\
1: 133:1 311:1 obj 1\\
1: 134:1 302:1 obj 1\\
1: 135:1 305:1 obj 1\\
1: 135:1 308:1 obj 1\\
1: 136:1 301:1 obj 1\\
1: 137:1 301:1 obj 1\\
1: 137:1 315:1 obj 1\\
2: 138:1 299:1 obj 1\\
1: 139:1 297:1 obj 1\\
1: 140:1 295:1 obj 1\\
3: 141:1 292:1 obj 1\\
1: 142:1 291:1 obj 1\\
1: 142:1 298:1 obj 1\\
1: 143:1 290:1 obj 1\\
1: 143:1 293:1 obj 1\\
1: 143:1 295:1 obj 1\\
1: 144:1 294:1 obj 1\\
1: 144:1 296:1 obj 1\\
1: 145:1 289:1 obj 1\\
1: 146:1 288:1 obj 1\\
1: 147:1 288:1 obj 1\\
1: 148:1 287:1 obj 1\\
1: 149:1 286:1 obj 1\\
1: 149:1 287:1 obj 1\\
1: 150:1 285:1 obj 1\\
1: 151:1 283:1 obj 1\\
2: 151:1 284:1 obj 1\\
1: 152:1 289:1 obj 1\\
1: 153:1 282:1 obj 1\\
1: 154:1 281:1 obj 1\\
2: 155:1 280:1 obj 1\\
3: 156:1 282:1 obj 1\\
1: 157:1 279:1 obj 1\\
1: 158:1 278:1 obj 1\\
1: 159:1 277:1 obj 1\\
1: 160:1 275:1 obj 1\\
1: 161:1 274:1 obj 1\\
1: 162:1 274:1 obj 1\\
1: 163:1 273:1 obj 1\\
1: 163:1 274:1 obj 1\\
1: 164:1 272:1 obj 1\\
1: 165:1 271:1 obj 1\\
1: 166:1 278:1 obj 1\\
1: 167:1 270:1 obj 1\\
1: 167:1 319:1 obj 1\\
1: 168:1 269:1 obj 1\\
1: 168:1 287:1 obj 1\\
1: 169:1 268:1 obj 1\\
1: 170:1 266:1 obj 1\\
1: 171:1 267:1 obj 1\\
2: 172:1 265:1 obj 1\\
1: 173:1 264:1 obj 1\\
2: 174:1 262:1 obj 1\\
2: 175:1 261:1 obj 1\\
1: 175:1 279:1 obj 1\\
1: 176:1 260:1 obj 1\\
1: 177:1 259:1 obj 1\\
1: 178:1 262:1 obj 1\\
1: 178:1 263:1 obj 1\\
2: 179:1 271:1 obj 1\\
1: 180:1 271:1 obj 1\\
1: 180:1 279:1 obj 1\\
1: 181:1 258:1 obj 1\\
1: 182:1 257:1 obj 1\\
1: 183:1 257:1 obj 1\\
1: 184:1 256:1 obj 1\\
2: 185:1 255:1 obj 1\\
1: 186:1 254:1 obj 1\\
2: 187:1 253:1 obj 1\\
1: 188:1 251:1 obj 1\\
1: 189:1 250:1 obj 1\\
1: 190:1 252:1 obj 1\\
1: 191:1 251:1 obj 1\\
2: 191:1 255:1 obj 1\\
1: 192:1 249:1 obj 1\\
1: 192:1 256:1 obj 1\\
2: 193:1 248:1 obj 1\\
1: 194:1 257:1 obj 1\\
1: 195:1 243:1 obj 1\\
1: 196:1 242:1 obj 1\\
1: 196:1 246:1 obj 1\\
1: 198:1 240:1 obj 1\\
1: 199:1 244:1 obj 1\\
1: 199:1 246:1 obj 1\\
1: 200:1 239:1 obj 1\\
1: 200:1 247:1 obj 1\\
1: 201:1 237:1 obj 1\\
1: 201:1 238:1 obj 1\\
1: 202:1 236:1 obj 1\\
1: 203:1 235:1 obj 1\\
1: 204:1 234:1 obj 1\\
1: 204:1 235:1 obj 1\\
1: 205:1 231:1 obj 1\\
2: 206:1 230:1 obj 1\\
1: 206:1 231:1 obj 1\\
2: 207:1 229:1 obj 1\\
3: 208:1 232:1 obj 1\\
2: 209:1 233:1 obj 1\\
1: 209:1 248:1 obj 1\\
1: 210:1 228:1 obj 1\\
1: 211:1 227:1 obj 1\\
1: 212:1 227:1 obj 1\\
2: 213:1 226:1 obj 1\\
1: 214:1 236:1 obj 1\\
1: 214:1 253:1 obj 1\\
1: 215:1 250:1 obj 1\\
1: 216:1 224:1 obj 1\\
1: 217:1 223:1 obj 1\\
1: 218:1 222:1 obj 1\\
1: 219:1 221:1 obj 1\\
1: 220:1 222:1 obj 1\\
1: 223:2 obj 1\\
1: 225:2 obj 1\\
1: 330:-1 obj 0\\
1: 342:-1 obj 0\\
1: 350:-1 obj 0\\
1: 356:-1 obj 0\\
1: 360:-1 obj 0\\
1: 363:-1 obj 0\\
1: 405:-1 obj 0\\
2: 416:-1 obj 0\\
1: 425:-1 obj 0\\
1: 154:1 322:1 obj 1\\
1: 197:1 245:1 obj 1\\
1: 75:1 386:1 obj 1\\
1: 48:1 397:1 obj 1\\
1: 160:1 281:1 obj 1\\
1: 194:1 275:1 obj 1\\
1: 200:1 300:1 obj 1\\
1: 100:1 358:1 obj 1\\
1: 137:1 323:1 obj 1\\
1: 163:1 276:1 obj 1\\
1: 166:1 298:1 obj 1\\
1: 198:1 241:1 obj 1\\



